Version identifier: 22.1.1.0 | 2022-11-28 | 9160aff4d
CPXPARAM_ClockType                               1
CPXPARAM_Read_DataCheck                          1
CPXPARAM_Threads                                 1
CPXPARAM_TimeLimit                               7200
CPXPARAM_MIP_Tolerances_AbsMIPGap                0
CPXPARAM_MIP_Tolerances_MIPGap                   0
CPXPARAM_MIP_Tolerances_Integrality              0
Tried aggregator 1 time.
MIP Presolve eliminated 1477 rows and 9 columns.
MIP Presolve modified 758 coefficients.
Reduced MIP has 9514 rows, 4341 columns, and 29646 nonzeros.
Reduced MIP has 4341 binaries, 0 generals, 0 SOSs, and 0 indicators.
Presolve time = 0.03 sec. (19.30 ticks)
Probing time = 0.01 sec. (3.28 ticks)
Tried aggregator 1 time.
Detecting symmetries...
MIP Presolve eliminated 500 rows and 0 columns.
Reduced MIP has 9014 rows, 4341 columns, and 28146 nonzeros.
Reduced MIP has 4341 binaries, 0 generals, 0 SOSs, and 0 indicators.
Presolve time = 0.04 sec. (23.39 ticks)
Probing time = 0.01 sec. (3.18 ticks)
Clique table members: 6925.
MIP emphasis: balance optimality and feasibility.
MIP search method: dynamic search.
Parallel mode: none, using 1 thread.
Root relaxation solution time = 0.96 sec. (508.98 ticks)

        Nodes                                         Cuts/
   Node  Left     Objective  IInf  Best Integer    Best Bound    ItCnt     Gap

      0     0     3300.0000  1265                   3300.0000     3396         
      0     0     3300.0000  1152                   Cuts: 136     5717         
      0     0     3300.0000  1228                   Cuts: 141     9162         
      0     0     3300.0000  1291                   Cuts: 187    12710         
*     0+    0                            0.0000     3300.0000              --- 
*     0+    0                           36.0000     3300.0000              --- 
*     0+    0                           86.0000     3300.0000              --- 
Detecting symmetries...
      0     2     3300.0000  1183       86.0000     3300.0000    12710     --- 
Elapsed time = 12.48 sec. (8088.68 ticks, tree = 0.01 MB, solutions = 3)
      1     3     3300.0000  1208       86.0000     3300.0000    28609     --- 
      2     4     3300.0000  1079       86.0000     3300.0000    32664     --- 
      3     5     3300.0000  1068       86.0000     3300.0000    35206     --- 
      4     6     3300.0000   915       86.0000     3300.0000    36488     --- 
      6     6     3300.0000  1068       86.0000     3300.0000    38759     --- 
      7     7     3300.0000  1019       86.0000     3300.0000    40162     --- 
      8     6    infeasible             86.0000     3300.0000    44007     --- 
      9     7     3300.0000   972       86.0000     3300.0000    44491     --- 
     11     7     3300.0000   967       86.0000     3300.0000    45162     --- 
     13     9     3300.0000   867       86.0000     3300.0000    48968     --- 
Elapsed time = 27.58 sec. (19264.49 ticks, tree = 0.23 MB, solutions = 3)
     14    10     3279.5714  1012       86.0000     3300.0000    53939     --- 
     17    13     3300.0000   993       86.0000     3300.0000    56310     --- 
     23    17     3300.0000   897       86.0000     3300.0000    59639     --- 
     28    16    infeasible             86.0000     3300.0000    62257     --- 
     32    18     3300.0000   985       86.0000     3300.0000    64747     --- 
     36    22     3266.0000   715       86.0000     3300.0000    68366     --- 
*    40+   22                         3212.0000     3300.0000             2.74%
*    49    29      integral     0     3248.0000     3300.0000    71525    1.60%
     50    29     3300.0000   778     3248.0000     3300.0000    72076    1.60%
*    65     1      integral     0     3300.0000     3300.0000    74922    0.00%

Clique cuts applied:  7
Implied bound cuts applied:  3
Zero-half cuts applied:  28

Root node processing (before b&c):
  Real time             =   12.47 sec. (8082.91 ticks)
Sequential b&c:
  Real time             =   26.62 sec. (19561.11 ticks)
                          ------------
Total (root+branch&cut) =   39.09 sec. (27644.02 ticks)
Solution is feasible.

---------------------
@@@ MIP_optimal
>>> Benchmark flat50-3.cnf k 10 OPT 3300 TimeCost 40.1789026260376 TimeSolve 39.289329290390015 TimeRead 0.0019328594207763672 TimeTrans 0.8876404762268066
